(set-logic QF_S)
(declare-fun var0 () String)
(assert (RegexIn var0 (RegexConcat (RegexStar (RegexPlus (Str2Reg "000"))) (RegexConcat (RegexUnion (RegexPlus (Str2Reg "111")) (RegexPlus (Str2Reg "22"))) (RegexConcat (RegexStar (RegexUnion (Str2Reg "333") (Str2Reg "444"))) (RegexConcat (RegexPlus (RegexStar (Str2Reg "5"))) (RegexConcat (RegexUnion (RegexUnion (Str2Reg "666") (Str2Reg "77")) (RegexUnion (Str2Reg "8") (Str2Reg "9"))) (RegexConcat (RegexPlus (RegexUnion (Str2Reg "aaa") (Str2Reg "bbb"))) (RegexConcat (RegexUnion (RegexStar (Str2Reg "cc")) (RegexStar (Str2Reg "d"))) (RegexConcat (RegexUnion (RegexStar (Str2Reg "ee")) (RegexStar (Str2Reg "fff"))) (RegexConcat (RegexUnion (RegexStar (Str2Reg "ggg")) (RegexStar (Str2Reg "hh"))) (RegexConcat (RegexUnion (RegexPlus (Str2Reg "iii")) (RegexPlus (Str2Reg "jjj"))) (RegexConcat (RegexStar (RegexStar (Str2Reg "k"))) (RegexConcat (RegexPlus (RegexUnion (Str2Reg "lll") (Str2Reg "mm"))) (RegexConcat (RegexUnion (RegexUnion (Str2Reg "nn") (Str2Reg "o")) (RegexUnion (Str2Reg "pp") (Str2Reg "qqq"))) (RegexConcat (RegexUnion (RegexStar (Str2Reg "rr")) (RegexStar (Str2Reg "sss"))) (RegexConcat (RegexPlus (RegexStar (Str2Reg "ttt"))) (RegexConcat (RegexUnion (RegexUnion (Str2Reg "uuu") (Str2Reg "vv")) (RegexUnion (Str2Reg "ww") (Str2Reg "x"))) (RegexConcat (RegexPlus (RegexPlus (Str2Reg "yyy"))) (RegexConcat (RegexPlus (RegexStar (Str2Reg "zzz"))) (RegexConcat (RegexPlus (RegexPlus (Str2Reg "A"))) (RegexConcat (RegexUnion (RegexUnion (Str2Reg "BB") (Str2Reg "CC")) (RegexUnion (Str2Reg "DDD") (Str2Reg "EEE"))) (RegexConcat (RegexPlus (RegexStar (Str2Reg "F"))) (RegexConcat (RegexStar (RegexUnion (Str2Reg "G") (Str2Reg "HH"))) (RegexConcat (RegexPlus (RegexStar (Str2Reg "III"))) (RegexConcat (RegexUnion (RegexUnion (Str2Reg "JJJ") (Str2Reg "KKK")) (RegexUnion (Str2Reg "LLL") (Str2Reg "MMM"))) (RegexConcat (RegexPlus (RegexStar (Str2Reg "N"))) (RegexConcat (RegexPlus (RegexUnion (Str2Reg "OOO") (Str2Reg "PPP"))) (RegexConcat (RegexPlus (RegexStar (Str2Reg "QQQ"))) (RegexConcat (RegexUnion (RegexUnion (Str2Reg "RR") (Str2Reg "SSS")) (RegexUnion (Str2Reg "TT") (Str2Reg "UUU"))) (RegexConcat (RegexStar (RegexUnion (Str2Reg "VV") (Str2Reg "WW"))) (RegexConcat (RegexUnion (RegexStar (Str2Reg "X")) (RegexStar (Str2Reg "Y"))) (RegexConcat (RegexStar (RegexStar (Str2Reg "ZZ"))) (RegexConcat (RegexStar (RegexStar (Str2Reg "!"))) (RegexConcat (RegexUnion (RegexPlus (Str2Reg "\"\"")) (RegexPlus (Str2Reg "###"))) (RegexConcat (RegexStar (RegexUnion (Str2Reg "$") (Str2Reg "%%%"))) (RegexConcat (RegexPlus (RegexStar (Str2Reg "&&"))) (RegexConcat (RegexStar (RegexPlus (Str2Reg "'"))) (RegexConcat (RegexPlus (RegexPlus (Str2Reg "((("))) (RegexConcat (RegexStar (RegexUnion (Str2Reg ")") (Str2Reg "*"))) (RegexConcat (RegexPlus (RegexPlus (Str2Reg "+"))) (RegexConcat (RegexStar (RegexStar (Str2Reg ",,,"))) (RegexStar (RegexPlus (Str2Reg "-")))))))))))))))))))))))))))))))))))))))))))))
(assert (not (RegexIn var0 (RegexConcat (RegexUnion (RegexStar (Str2Reg "0")) (RegexStar (Str2Reg "11"))) (RegexConcat (RegexPlus (RegexUnion (Str2Reg "22") (Str2Reg "3"))) (RegexConcat (RegexStar (RegexStar (Str2Reg "4"))) (RegexConcat (RegexUnion (RegexPlus (Str2Reg "55")) (RegexPlus (Str2Reg "666"))) (RegexConcat (RegexUnion (RegexPlus (Str2Reg "777")) (RegexPlus (Str2Reg "8"))) (RegexConcat (RegexUnion (RegexStar (Str2Reg "99")) (RegexStar (Str2Reg "aaa"))) (RegexConcat (RegexStar (RegexPlus (Str2Reg "bb"))) (RegexConcat (RegexPlus (RegexStar (Str2Reg "c"))) (RegexConcat (RegexUnion (RegexUnion (Str2Reg "ddd") (Str2Reg "eee")) (RegexUnion (Str2Reg "ff") (Str2Reg "gg"))) (RegexConcat (RegexUnion (RegexStar (Str2Reg "hhh")) (RegexStar (Str2Reg "i"))) (RegexConcat (RegexPlus (RegexPlus (Str2Reg "jjj"))) (RegexConcat (RegexUnion (RegexUnion (Str2Reg "k") (Str2Reg "l")) (RegexUnion (Str2Reg "m") (Str2Reg "n"))) (RegexConcat (RegexStar (RegexStar (Str2Reg "oo"))) (RegexConcat (RegexPlus (RegexStar (Str2Reg "ppp"))) (RegexConcat (RegexPlus (RegexStar (Str2Reg "q"))) (RegexConcat (RegexPlus (RegexUnion (Str2Reg "rr") (Str2Reg "s"))) (RegexConcat (RegexStar (RegexUnion (Str2Reg "ttt") (Str2Reg "uu"))) (RegexConcat (RegexStar (RegexStar (Str2Reg "v"))) (RegexConcat (RegexPlus (RegexPlus (Str2Reg "ww"))) (RegexConcat (RegexStar (RegexStar (Str2Reg "x"))) (RegexConcat (RegexStar (RegexUnion (Str2Reg "yy") (Str2Reg "zz"))) (RegexConcat (RegexStar (RegexPlus (Str2Reg "AA"))) (RegexConcat (RegexPlus (RegexStar (Str2Reg "BBB"))) (RegexConcat (RegexStar (RegexPlus (Str2Reg "CC"))) (RegexConcat (RegexUnion (RegexUnion (Str2Reg "DD") (Str2Reg "E")) (RegexUnion (Str2Reg "FFF") (Str2Reg "GGG"))) (RegexConcat (RegexUnion (RegexPlus (Str2Reg "HH")) (RegexPlus (Str2Reg "II"))) (RegexConcat (RegexUnion (RegexPlus (Str2Reg "JJJ")) (RegexPlus (Str2Reg "KKK"))) (RegexConcat (RegexUnion (RegexUnion (Str2Reg "LL") (Str2Reg "MM")) (RegexUnion (Str2Reg "NNN") (Str2Reg "OOO"))) (RegexConcat (RegexStar (RegexUnion (Str2Reg "P") (Str2Reg "QQQ"))) (RegexConcat (RegexStar (RegexPlus (Str2Reg "RRR"))) (RegexConcat (RegexUnion (RegexStar (Str2Reg "SS")) (RegexStar (Str2Reg "TTT"))) (RegexConcat (RegexPlus (RegexUnion (Str2Reg "U") (Str2Reg "VVV"))) (RegexConcat (RegexStar (RegexPlus (Str2Reg "W"))) (RegexConcat (RegexStar (RegexPlus (Str2Reg "XX"))) (RegexConcat (RegexStar (RegexUnion (Str2Reg "YY") (Str2Reg "Z"))) (RegexConcat (RegexUnion (RegexPlus (Str2Reg "!!!")) (RegexPlus (Str2Reg "\"\""))) (RegexConcat (RegexStar (RegexStar (Str2Reg "###"))) (RegexConcat (RegexPlus (RegexStar (Str2Reg "$$$"))) (RegexConcat (RegexPlus (RegexUnion (Str2Reg "%%") (Str2Reg "&&"))) (RegexConcat (RegexPlus (RegexUnion (Str2Reg "'") (Str2Reg "(("))) (RegexStar (RegexPlus (Str2Reg "))"))))))))))))))))))))))))))))))))))))))))))))))
(check-sat)